Test: Urq3_5.cnf
Options: -no-inverting-opt -sym-var-bump
WARNING: for repeatability, setting FPU to use double precision
============================[ Problem Statistics ]=============================
|                                                                             |
|  Number of symmetries:           29                                         |
|  Number of invertingSyms:        29                                         |
|  Number of variables:            46                                         |
|  Number of clauses:             470                                         |
|  Parse time:                   0.00 s                                       |
|                                                                             |
============================[ Search Statistics ]==============================
| Conflicts |          ORIGINAL         |          LEARNT          | Progress |
|           |    Vars  Clauses Literals |    Limit  Clauses Lit/Cl |          |
===============================================================================
|       100 |      46      470     2912 |      172      116     22 |  0.048 % |
|       250 |      46      470     2912 |      189      116     15 |  0.048 % |
|       475 |      46      470     2912 |      208      182     15 |  0.048 % |
|       812 |      46      470     2912 |      229      164     14 |  0.048 % |
|      1318 |      46      470     2912 |      252      232     14 |  0.048 % |
|      2077 |      46      470     2912 |      277      235     15 |  0.048 % |
|      3216 |      46      470     2912 |      305      194     14 |  0.048 % |
===============================================================================
restarts              : 18
conflicts             : 3493           (145536 /sec)
symconflicts          : 1251           (52123 /sec)
decisions             : 6124           (0.00 % random) (255156 /sec)
propagations          : 18479          (769926 /sec)
sympropagations       : 1251           (52123 /sec)
conflict literals     : 51336          (3.25 % deleted)
literals     : 51336          (3.25 % deleted)

HEURISTIC USAGES
random                : 0           
activity w/ lookahead : 0           
activity no lookahead : 0           
original sp           : 6124        
sym count             : 0           

Memory used           : 5.00 MB
CPU time              : 0.024001 s

UNSATISFIABLE
